c Sudoku solution
p cnf 729 0
162 0
198 0
214 0
231 0
266 0
297 0
332 0
341 0
367 0
379 0
393 0
437 0
526 0
535 0
554 0
144 0
384 0
316 0
599 0
634 0
675 0
272 0
285 0
686 0
181 0
176 0
761 0
838 0
896 0
919 0
139 0
921 0
871 0
511 0
958 0
355 0
153 0
259 0
248 0
223 0
328 0
987 0
577 0
542 0
992 0
795 0
482 0
691 0
494 0
451 0
657 0
446 0
465 0
429 0
622 0
756 0
852 0
712 0
733 0
936 0
945 0
568 0
583 0
478 0
413 0
618 0
973 0
889 0
774 0
788 0
727 0
824 0
815 0
749 0
847 0
863 0
964 0
117 0
125 0
643 0
669 0
